<number of tasks>
250

<cycle time>
1000

<order strength>
0.895


<task times>
1 43
2 35
3 85
4 164
5 76
6 219
7 65
8 152
9 41
10 78
11 235
12 277
13 33
14 506
15 145
16 165
17 197
18 111
19 575
20 109
21 93
22 35
23 79
24 360
25 282
26 447
27 57
28 200
29 363
30 462
31 76
32 144
33 110
34 175
35 270
36 83
37 128
38 269
39 189
40 23
41 27
42 113
43 114
44 95
45 75
46 257
47 103
48 306
49 20
50 172
51 263
52 92
53 475
54 501
55 355
56 214
57 71
58 21
59 165
60 591
61 212
62 99
63 80
64 186
65 172
66 249
67 91
68 154
69 116
70 540
71 83
72 173
73 292
74 466
75 119
76 436
77 248
78 155
79 547
80 329
81 275
82 96
83 130
84 330
85 141
86 332
87 301
88 375
89 168
90 140
91 77
92 89
93 448
94 255
95 180
96 313
97 538
98 404
99 71
100 524
101 90
102 514
103 84
104 128
105 180
106 154
107 341
108 171
109 465
110 198
111 65
112 37
113 51
114 191
115 139
116 147
117 286
118 89
119 553
120 469
121 274
122 85
123 118
124 185
125 126
126 208
127 186
128 52
129 504
130 239
131 170
132 23
133 443
134 60
135 360
136 105
137 74
138 153
139 80
140 65
141 213
142 82
143 49
144 268
145 47
146 537
147 172
148 546
149 172
150 182
151 178
152 213
153 373
154 162
155 190
156 255
157 333
158 172
159 310
160 159
161 436
162 121
163 216
164 185
165 232
166 511
167 165
168 500
169 78
170 315
171 90
172 508
173 33
174 77
175 112
176 392
177 61
178 542
179 186
180 115
181 131
182 166
183 544
184 538
185 505
186 55
187 175
188 247
189 471
190 38
191 128
192 151
193 252
194 178
195 237
196 247
197 124
198 476
199 132
200 274
201 34
202 49
203 242
204 63
205 50
206 573
207 177
208 191
209 267
210 214
211 92
212 75
213 122
214 407
215 151
216 137
217 200
218 224
219 231
220 140
221 490
222 124
223 473
224 28
225 28
226 237
227 54
228 516
229 156
230 331
231 468
232 35
233 196
234 76
235 128
236 24
237 212
238 101
239 81
240 232
241 176
242 559
243 188
244 181
245 243
246 206
247 133
248 235
249 167
250 261

<precedence relations>
1,7
1,8
1,9
2,4
2,5
2,6
2,7
2,8
2,9
3,4
3,5
3,6
3,9
4,10
4,11
4,12
4,13
5,12
5,20
5,21
6,10
6,11
6,12
6,13
6,14
7,10
7,11
7,12
7,21
8,10
8,11
8,12
8,13
8,14
9,10
9,11
9,12
9,13
9,14
10,15
10,16
11,15
11,19
12,15
12,16
12,17
12,18
13,15
13,16
13,17
13,20
13,21
14,15
15,22
15,23
15,24
15,25
15,26
16,23
17,22
17,24
17,25
17,26
18,22
18,23
18,24
18,26
19,22
19,23
19,24
19,25
19,26
20,22
20,23
20,24
20,25
20,26
21,22
21,23
21,24
21,25
21,26
22,27
22,28
22,29
22,30
23,27
23,28
24,27
25,27
25,28
25,29
25,30
26,27
26,28
26,29
26,30
27,31
27,32
27,33
27,34
28,31
28,32
28,33
28,34
29,33
30,31
30,32
30,33
30,34
31,35
31,36
31,37
31,38
32,35
32,37
32,38
32,39
32,40
33,35
33,36
34,35
34,36
34,39
35,114
35,115
35,116
36,41
36,42
36,43
36,44
37,41
38,41
38,42
38,43
38,44
39,41
39,42
39,43
39,44
40,41
41,45
41,46
41,47
41,48
41,49
42,45
42,46
42,47
42,48
43,45
43,46
43,47
43,49
44,45
44,46
44,47
44,48
44,49
45,53
46,101
47,50
47,51
47,52
48,50
48,65
49,50
49,51
49,52
49,53
50,54
50,63
50,67
51,54
51,55
52,54
53,54
53,55
53,56
53,57
53,58
54,59
55,59
55,60
55,62
55,63
56,60
57,59
57,61
58,59
58,60
58,62
59,64
59,68
60,64
60,65
61,64
61,65
61,67
62,70
62,75
62,76
62,77
63,64
63,66
64,161
64,170
65,69
65,70
65,71
65,73
66,69
66,70
66,71
66,72
66,73
67,69
67,72
67,73
68,73
69,74
69,75
69,76
69,77
70,97
71,74
71,75
71,82
72,74
72,75
72,76
72,77
73,74
73,75
73,77
74,121
75,78
75,80
75,81
76,78
76,79
76,80
76,81
76,82
77,78
77,79
77,80
77,81
77,82
78,83
78,84
79,83
79,84
80,83
80,84
81,83
81,84
82,83
82,84
83,85
83,86
83,87
83,88
84,85
84,86
84,87
84,88
85,89
85,90
86,89
86,90
87,89
87,90
88,89
88,90
89,91
89,92
89,93
89,94
90,95
90,103
90,104
90,105
90,106
91,96
91,97
92,96
92,97
92,98
93,96
93,97
93,98
94,96
95,155
96,100
97,113
98,99
98,101
98,105
98,106
99,102
100,102
100,103
100,104
100,105
100,106
101,102
101,104
102,107
102,108
103,107
103,108
104,107
104,108
105,107
105,108
106,107
106,108
107,109
107,110
107,111
107,112
108,109
108,110
108,111
108,112
109,113
109,114
109,115
109,116
110,113
110,114
110,115
110,116
111,113
111,114
111,115
111,116
112,113
112,114
112,115
112,116
113,117
113,118
113,119
113,120
114,136
114,137
114,146
115,117
115,118
115,119
115,120
115,121
116,117
116,118
116,119
116,120
116,121
117,122
118,125
119,122
119,126
119,127
120,122
120,124
120,127
121,122
121,123
121,124
121,125
121,126
121,127
122,128
122,129
122,130
122,131
122,132
123,128
123,129
123,130
123,132
124,128
124,130
124,132
125,128
125,131
126,200
126,221
127,143
128,133
129,133
129,134
129,135
130,133
130,134
130,135
131,133
131,134
131,135
132,133
132,134
132,135
133,136
133,137
133,138
133,139
134,136
134,137
135,136
135,137
135,138
135,139
136,141
136,144
137,142
137,247
138,140
138,146
139,143
139,145
139,151
139,152
140,147
140,150
140,152
141,221
141,247
142,238
143,148
143,150
144,149
144,151
145,147
146,148
147,167
147,170
147,174
148,153
148,154
149,153
149,154
149,155
150,153
150,155
151,153
152,196
153,158
153,159
153,160
154,157
154,167
155,156
155,157
155,160
156,171
157,161
158,162
158,163
158,174
159,161
159,170
160,164
160,187
160,188
160,204
161,164
161,165
161,168
161,169
162,176
162,177
163,164
163,166
163,167
163,170
164,173
164,183
165,194
165,213
166,171
166,185
167,171
167,172
167,175
168,172
168,173
168,175
169,171
169,174
170,173
170,208
171,176
171,177
171,178
171,188
172,176
172,179
172,181
174,178
174,182
174,207
175,180
175,186
176,184
176,201
176,205
177,183
177,186
177,191
177,198
179,182
180,185
180,189
181,182
181,202
182,187
182,188
182,191
182,193
183,190
183,199
183,202
184,187
185,187
185,192
186,187
186,189
186,190
187,194
187,216
188,194
189,194
189,195
189,221
190,205
190,210
191,197
191,199
192,198
193,196
194,203
194,217
195,202
196,200
196,201
197,200
197,248
198,200
198,208
199,201
200,204
200,242
201,206
202,205
202,232
203,214
205,207
205,225
206,208
207,209
207,217
207,235
208,210
208,211
208,212
208,213
209,224
210,216
211,215
211,226
211,236
212,214
212,217
213,220
214,218
214,219
215,220
215,221
216,220
216,228
216,238
217,231
219,222
219,223
220,224
221,231
222,225
223,226
223,227
223,228
224,227
225,229
225,230
225,233
227,250
228,231
228,232
229,234
229,236
230,238
230,239
230,240
233,235
233,237
234,241
234,249
237,239
237,240
238,241
239,244
239,247
239,249
240,243
240,244
240,245
240,246
241,242
243,249
244,248
246,248
246,250

<end>
